
Gurobi 9.0.1 (linux64) logging started Thu Apr 30 23:44:52 2020

Gurobi Optimizer version 9.0.1 build v9.0.1rc0 (linux64)
Optimize a model with 1184 rows, 842 columns and 4340 nonzeros
Model fingerprint: 0x346add29
Variable types: 0 continuous, 842 integer (810 binary)
Coefficient statistics:
  Matrix range     [1e+00, 8e+00]
  Objective range  [2e+00, 1e+02]
  Bounds range     [1e+00, 1e+00]
  RHS range        [1e+00, 9e+00]

User MIP start produced solution with objective 590 (0.00s)
Loaded user MIP start with objective 590

Presolve removed 480 rows and 316 columns
Presolve time: 0.02s
Presolved: 704 rows, 526 columns, 2912 nonzeros
Variable types: 0 continuous, 526 integer (498 binary)

Root relaxation: objective 3.742500e+02, 637 iterations, 0.03 seconds

    Nodes    |    Current Node    |     Objective Bounds      |     Work
 Expl Unexpl |  Obj  Depth IntInf | Incumbent    BestBd   Gap | It/Node Time

     0     0  374.25000    0   25  590.00000  374.25000  36.6%     -    0s
     0     0  448.00000    0   29  590.00000  448.00000  24.1%     -    0s
     0     0  448.00000    0   39  590.00000  448.00000  24.1%     -    0s
     0     0  448.37500    0   35  590.00000  448.37500  24.0%     -    0s
     0     0  448.56250    0   53  590.00000  448.56250  24.0%     -    0s
     0     0  452.62499    0   49  590.00000  452.62499  23.3%     -    0s
     0     0  454.49999    0   45  590.00000  454.49999  23.0%     -    0s
     0     0  454.49999    0   46  590.00000  454.49999  23.0%     -    0s
     0     0  454.49999    0   46  590.00000  454.49999  23.0%     -    0s
     0     0  454.49999    0   42  590.00000  454.49999  23.0%     -    0s
     0     0  454.49999    0   38  590.00000  454.49999  23.0%     -    0s
     0     0  454.49999    0   39  590.00000  454.49999  23.0%     -    0s
     0     0  454.49999    0   32  590.00000  454.49999  23.0%     -    0s
     0     0  454.49999    0   32  590.00000  454.49999  23.0%     -    0s
     0     0  454.49999    0   33  590.00000  454.49999  23.0%     -    0s
     0     0  454.49999    0   33  590.00000  454.49999  23.0%     -    0s
     0     0  454.49999    0   23  590.00000  454.49999  23.0%     -    0s
     0     0  454.49999    0   38  590.00000  454.49999  23.0%     -    0s
     0     0  454.49999    0   27  590.00000  454.49999  23.0%     -    0s
     0     0  454.49999    0   42  590.00000  454.49999  23.0%     -    0s
     0     0  454.49999    0   37  590.00000  454.49999  23.0%     -    0s
     0     0  454.49999    0   22  590.00000  454.49999  23.0%     -    0s
     0     2  454.99999    0   22  590.00000  454.99999  22.9%     -    0s
   835   558  531.08562   36  164  590.00000  482.58000  18.2%  46.2    5s
H 1392   736                     587.0000000  500.00000  14.8%  45.1    7s
H 1397   702                     585.0000000  500.00136  14.5%  45.1    8s
H 1918   590                     536.0000000  500.11392  6.70%  41.8    9s
  1955   611  502.03813   24  164  536.00000  500.12684  6.69%  42.7   10s
H 2232   406                     519.0000000  500.26667  3.61%  43.5   11s
  2693   670  502.00000   23   57  519.00000  500.47537  3.57%  47.5   15s
H 2800   589                     515.0000000  500.52970  2.81%  49.5   16s
H 2935   570                     513.0000000  500.59032  2.42%  50.7   17s
  3219   670  501.98489   24  302  513.00000  500.79175  2.38%  54.3   20s
  3734   815  505.01232   25  201  513.00000  501.41631  2.26%  59.0   25s
  4229   944  510.41241   27  158  513.00000  501.98953  2.15%  63.1   30s
  4659  1061  503.11943   26   94  513.00000  502.08912  2.13%  67.2   35s
  5147  1135  505.25266   31  166  513.00000  502.34621  2.08%  70.6   40s
  5614  1210  510.73885   31  194  513.00000  502.65888  2.02%  72.7   45s
* 5659  1183              36     512.0000000  502.73092  1.81%  72.7   45s
  6047  1213     cutoff   37       512.00000  503.00000  1.76%  74.4   50s
  6549  1252  505.13171   26  243  512.00000  503.48276  1.66%  76.1   55s
  7016  1266     cutoff   34       512.00000  503.86667  1.59%  76.8   60s
  7539  1226  509.38627   30  142  512.00000  504.47458  1.47%  78.0   65s
  8103  1119     cutoff   26       512.00000  505.00000  1.37%  78.6   70s
  8707  1027  506.46654   25  140  512.00000  505.59714  1.25%  78.6   75s
  9238   931  508.20759   27  155  512.00000  506.19046  1.13%  78.1   80s
  9985   763  509.71259   32  139  512.00000  506.94440  0.99%  77.5   85s
 10836   556     cutoff   37       512.00000  507.83401  0.81%  76.0   90s

Cutting planes:
  Learned: 4
  Gomory: 23
  Cover: 49
  Implied bound: 158
  MIR: 17
  Flow cover: 63
  GUB cover: 1
  Inf proof: 25
  Zero half: 13
  Relax-and-lift: 1

Explored 11724 nodes (865487 simplex iterations) in 94.17 seconds
Thread count was 1 (of 40 available processors)

Solution count 8: 512 513 515 ... 590

Optimal solution found (tolerance 1.00e-04)
Best objective 5.120000000000e+02, best bound 5.120000000000e+02, gap 0.0000%

User-callback calls 49449, time in user-callback 0.12 sec
